c File: flat200_3_0.col
c
c SOURCE: Joseph Culberson (joe@cs.ualberta.ca)
c DESCRIPTION: Quasi-random coloring problem
c              generated with flatness = 0
c                             probability = 0.036
c                             known coloring = 3
c                             random seed = 1066
c              Creation Date:  Wed Feb 24 10:40:06 1999
c Maximum degree = 8 Minimum degree = 0
c COLOR VERIFICATION: Using the permuted order
c under simple greedy yields the specified
c coloring number
c Color = 3 specified partitions = 3
c p edge 200 479
c cnf created by edge2cnf
p cnf 600 2237
-1 -2 0
-1 -3 0
-2 -3 0
1 2 3 0
-4 -5 0
-4 -6 0
-5 -6 0
4 5 6 0
-7 -8 0
-7 -9 0
-8 -9 0
7 8 9 0
-10 -11 0
-10 -12 0
-11 -12 0
10 11 12 0
-13 -14 0
-13 -15 0
-14 -15 0
13 14 15 0
-16 -17 0
-16 -18 0
-17 -18 0
16 17 18 0
-19 -20 0
-19 -21 0
-20 -21 0
19 20 21 0
-22 -23 0
-22 -24 0
-23 -24 0
22 23 24 0
-25 -26 0
-25 -27 0
-26 -27 0
25 26 27 0
-28 -29 0
-28 -30 0
-29 -30 0
28 29 30 0
-31 -32 0
-31 -33 0
-32 -33 0
31 32 33 0
-34 -35 0
-34 -36 0
-35 -36 0
34 35 36 0
-37 -38 0
-37 -39 0
-38 -39 0
37 38 39 0
-40 -41 0
-40 -42 0
-41 -42 0
40 41 42 0
-43 -44 0
-43 -45 0
-44 -45 0
43 44 45 0
-46 -47 0
-46 -48 0
-47 -48 0
46 47 48 0
-49 -50 0
-49 -51 0
-50 -51 0
49 50 51 0
-52 -53 0
-52 -54 0
-53 -54 0
52 53 54 0
-55 -56 0
-55 -57 0
-56 -57 0
55 56 57 0
-58 -59 0
-58 -60 0
-59 -60 0
58 59 60 0
-61 -62 0
-61 -63 0
-62 -63 0
61 62 63 0
-64 -65 0
-64 -66 0
-65 -66 0
64 65 66 0
-67 -68 0
-67 -69 0
-68 -69 0
67 68 69 0
-70 -71 0
-70 -72 0
-71 -72 0
70 71 72 0
-73 -74 0
-73 -75 0
-74 -75 0
73 74 75 0
-76 -77 0
-76 -78 0
-77 -78 0
76 77 78 0
-79 -80 0
-79 -81 0
-80 -81 0
79 80 81 0
-82 -83 0
-82 -84 0
-83 -84 0
82 83 84 0
-85 -86 0
-85 -87 0
-86 -87 0
85 86 87 0
-88 -89 0
-88 -90 0
-89 -90 0
88 89 90 0
-91 -92 0
-91 -93 0
-92 -93 0
91 92 93 0
-94 -95 0
-94 -96 0
-95 -96 0
94 95 96 0
-97 -98 0
-97 -99 0
-98 -99 0
97 98 99 0
-100 -101 0
-100 -102 0
-101 -102 0
100 101 102 0
-103 -104 0
-103 -105 0
-104 -105 0
103 104 105 0
-106 -107 0
-106 -108 0
-107 -108 0
106 107 108 0
-109 -110 0
-109 -111 0
-110 -111 0
109 110 111 0
-112 -113 0
-112 -114 0
-113 -114 0
112 113 114 0
-115 -116 0
-115 -117 0
-116 -117 0
115 116 117 0
-118 -119 0
-118 -120 0
-119 -120 0
118 119 120 0
-121 -122 0
-121 -123 0
-122 -123 0
121 122 123 0
-124 -125 0
-124 -126 0
-125 -126 0
124 125 126 0
-127 -128 0
-127 -129 0
-128 -129 0
127 128 129 0
-130 -131 0
-130 -132 0
-131 -132 0
130 131 132 0
-133 -134 0
-133 -135 0
-134 -135 0
133 134 135 0
-136 -137 0
-136 -138 0
-137 -138 0
136 137 138 0
-139 -140 0
-139 -141 0
-140 -141 0
139 140 141 0
-142 -143 0
-142 -144 0
-143 -144 0
142 143 144 0
-145 -146 0
-145 -147 0
-146 -147 0
145 146 147 0
-148 -149 0
-148 -150 0
-149 -150 0
148 149 150 0
-151 -152 0
-151 -153 0
-152 -153 0
151 152 153 0
-154 -155 0
-154 -156 0
-155 -156 0
154 155 156 0
-157 -158 0
-157 -159 0
-158 -159 0
157 158 159 0
-160 -161 0
-160 -162 0
-161 -162 0
160 161 162 0
-163 -164 0
-163 -165 0
-164 -165 0
163 164 165 0
-166 -167 0
-166 -168 0
-167 -168 0
166 167 168 0
-169 -170 0
-169 -171 0
-170 -171 0
169 170 171 0
-172 -173 0
-172 -174 0
-173 -174 0
172 173 174 0
-175 -176 0
-175 -177 0
-176 -177 0
175 176 177 0
-178 -179 0
-178 -180 0
-179 -180 0
178 179 180 0
-181 -182 0
-181 -183 0
-182 -183 0
181 182 183 0
-184 -185 0
-184 -186 0
-185 -186 0
184 185 186 0
-187 -188 0
-187 -189 0
-188 -189 0
187 188 189 0
-190 -191 0
-190 -192 0
-191 -192 0
190 191 192 0
-193 -194 0
-193 -195 0
-194 -195 0
193 194 195 0
-196 -197 0
-196 -198 0
-197 -198 0
196 197 198 0
-199 -200 0
-199 -201 0
-200 -201 0
199 200 201 0
-202 -203 0
-202 -204 0
-203 -204 0
202 203 204 0
-205 -206 0
-205 -207 0
-206 -207 0
205 206 207 0
-208 -209 0
-208 -210 0
-209 -210 0
208 209 210 0
-211 -212 0
-211 -213 0
-212 -213 0
211 212 213 0
-214 -215 0
-214 -216 0
-215 -216 0
214 215 216 0
-217 -218 0
-217 -219 0
-218 -219 0
217 218 219 0
-220 -221 0
-220 -222 0
-221 -222 0
220 221 222 0
-223 -224 0
-223 -225 0
-224 -225 0
223 224 225 0
-226 -227 0
-226 -228 0
-227 -228 0
226 227 228 0
-229 -230 0
-229 -231 0
-230 -231 0
229 230 231 0
-232 -233 0
-232 -234 0
-233 -234 0
232 233 234 0
-235 -236 0
-235 -237 0
-236 -237 0
235 236 237 0
-238 -239 0
-238 -240 0
-239 -240 0
238 239 240 0
-241 -242 0
-241 -243 0
-242 -243 0
241 242 243 0
-244 -245 0
-244 -246 0
-245 -246 0
244 245 246 0
-247 -248 0
-247 -249 0
-248 -249 0
247 248 249 0
-250 -251 0
-250 -252 0
-251 -252 0
250 251 252 0
-253 -254 0
-253 -255 0
-254 -255 0
253 254 255 0
-256 -257 0
-256 -258 0
-257 -258 0
256 257 258 0
-259 -260 0
-259 -261 0
-260 -261 0
259 260 261 0
-262 -263 0
-262 -264 0
-263 -264 0
262 263 264 0
-265 -266 0
-265 -267 0
-266 -267 0
265 266 267 0
-268 -269 0
-268 -270 0
-269 -270 0
268 269 270 0
-271 -272 0
-271 -273 0
-272 -273 0
271 272 273 0
-274 -275 0
-274 -276 0
-275 -276 0
274 275 276 0
-277 -278 0
-277 -279 0
-278 -279 0
277 278 279 0
-280 -281 0
-280 -282 0
-281 -282 0
280 281 282 0
-283 -284 0
-283 -285 0
-284 -285 0
283 284 285 0
-286 -287 0
-286 -288 0
-287 -288 0
286 287 288 0
-289 -290 0
-289 -291 0
-290 -291 0
289 290 291 0
-292 -293 0
-292 -294 0
-293 -294 0
292 293 294 0
-295 -296 0
-295 -297 0
-296 -297 0
295 296 297 0
-298 -299 0
-298 -300 0
-299 -300 0
298 299 300 0
-301 -302 0
-301 -303 0
-302 -303 0
301 302 303 0
-304 -305 0
-304 -306 0
-305 -306 0
304 305 306 0
-307 -308 0
-307 -309 0
-308 -309 0
307 308 309 0
-310 -311 0
-310 -312 0
-311 -312 0
310 311 312 0
-313 -314 0
-313 -315 0
-314 -315 0
313 314 315 0
-316 -317 0
-316 -318 0
-317 -318 0
316 317 318 0
-319 -320 0
-319 -321 0
-320 -321 0
319 320 321 0
-322 -323 0
-322 -324 0
-323 -324 0
322 323 324 0
-325 -326 0
-325 -327 0
-326 -327 0
325 326 327 0
-328 -329 0
-328 -330 0
-329 -330 0
328 329 330 0
-331 -332 0
-331 -333 0
-332 -333 0
331 332 333 0
-334 -335 0
-334 -336 0
-335 -336 0
334 335 336 0
-337 -338 0
-337 -339 0
-338 -339 0
337 338 339 0
-340 -341 0
-340 -342 0
-341 -342 0
340 341 342 0
-343 -344 0
-343 -345 0
-344 -345 0
343 344 345 0
-346 -347 0
-346 -348 0
-347 -348 0
346 347 348 0
-349 -350 0
-349 -351 0
-350 -351 0
349 350 351 0
-352 -353 0
-352 -354 0
-353 -354 0
352 353 354 0
-355 -356 0
-355 -357 0
-356 -357 0
355 356 357 0
-358 -359 0
-358 -360 0
-359 -360 0
358 359 360 0
-361 -362 0
-361 -363 0
-362 -363 0
361 362 363 0
-364 -365 0
-364 -366 0
-365 -366 0
364 365 366 0
-367 -368 0
-367 -369 0
-368 -369 0
367 368 369 0
-370 -371 0
-370 -372 0
-371 -372 0
370 371 372 0
-373 -374 0
-373 -375 0
-374 -375 0
373 374 375 0
-376 -377 0
-376 -378 0
-377 -378 0
376 377 378 0
-379 -380 0
-379 -381 0
-380 -381 0
379 380 381 0
-382 -383 0
-382 -384 0
-383 -384 0
382 383 384 0
-385 -386 0
-385 -387 0
-386 -387 0
385 386 387 0
-388 -389 0
-388 -390 0
-389 -390 0
388 389 390 0
-391 -392 0
-391 -393 0
-392 -393 0
391 392 393 0
-394 -395 0
-394 -396 0
-395 -396 0
394 395 396 0
-397 -398 0
-397 -399 0
-398 -399 0
397 398 399 0
-400 -401 0
-400 -402 0
-401 -402 0
400 401 402 0
-403 -404 0
-403 -405 0
-404 -405 0
403 404 405 0
-406 -407 0
-406 -408 0
-407 -408 0
406 407 408 0
-409 -410 0
-409 -411 0
-410 -411 0
409 410 411 0
-412 -413 0
-412 -414 0
-413 -414 0
412 413 414 0
-415 -416 0
-415 -417 0
-416 -417 0
415 416 417 0
-418 -419 0
-418 -420 0
-419 -420 0
418 419 420 0
-421 -422 0
-421 -423 0
-422 -423 0
421 422 423 0
-424 -425 0
-424 -426 0
-425 -426 0
424 425 426 0
-427 -428 0
-427 -429 0
-428 -429 0
427 428 429 0
-430 -431 0
-430 -432 0
-431 -432 0
430 431 432 0
-433 -434 0
-433 -435 0
-434 -435 0
433 434 435 0
-436 -437 0
-436 -438 0
-437 -438 0
436 437 438 0
-439 -440 0
-439 -441 0
-440 -441 0
439 440 441 0
-442 -443 0
-442 -444 0
-443 -444 0
442 443 444 0
-445 -446 0
-445 -447 0
-446 -447 0
445 446 447 0
-448 -449 0
-448 -450 0
-449 -450 0
448 449 450 0
-451 -452 0
-451 -453 0
-452 -453 0
451 452 453 0
-454 -455 0
-454 -456 0
-455 -456 0
454 455 456 0
-457 -458 0
-457 -459 0
-458 -459 0
457 458 459 0
-460 -461 0
-460 -462 0
-461 -462 0
460 461 462 0
-463 -464 0
-463 -465 0
-464 -465 0
463 464 465 0
-466 -467 0
-466 -468 0
-467 -468 0
466 467 468 0
-469 -470 0
-469 -471 0
-470 -471 0
469 470 471 0
-472 -473 0
-472 -474 0
-473 -474 0
472 473 474 0
-475 -476 0
-475 -477 0
-476 -477 0
475 476 477 0
-478 -479 0
-478 -480 0
-479 -480 0
478 479 480 0
-481 -482 0
-481 -483 0
-482 -483 0
481 482 483 0
-484 -485 0
-484 -486 0
-485 -486 0
484 485 486 0
-487 -488 0
-487 -489 0
-488 -489 0
487 488 489 0
-490 -491 0
-490 -492 0
-491 -492 0
490 491 492 0
-493 -494 0
-493 -495 0
-494 -495 0
493 494 495 0
-496 -497 0
-496 -498 0
-497 -498 0
496 497 498 0
-499 -500 0
-499 -501 0
-500 -501 0
499 500 501 0
-502 -503 0
-502 -504 0
-503 -504 0
502 503 504 0
-505 -506 0
-505 -507 0
-506 -507 0
505 506 507 0
-508 -509 0
-508 -510 0
-509 -510 0
508 509 510 0
-511 -512 0
-511 -513 0
-512 -513 0
511 512 513 0
-514 -515 0
-514 -516 0
-515 -516 0
514 515 516 0
-517 -518 0
-517 -519 0
-518 -519 0
517 518 519 0
-520 -521 0
-520 -522 0
-521 -522 0
520 521 522 0
-523 -524 0
-523 -525 0
-524 -525 0
523 524 525 0
-526 -527 0
-526 -528 0
-527 -528 0
526 527 528 0
-529 -530 0
-529 -531 0
-530 -531 0
529 530 531 0
-532 -533 0
-532 -534 0
-533 -534 0
532 533 534 0
-535 -536 0
-535 -537 0
-536 -537 0
535 536 537 0
-538 -539 0
-538 -540 0
-539 -540 0
538 539 540 0
-541 -542 0
-541 -543 0
-542 -543 0
541 542 543 0
-544 -545 0
-544 -546 0
-545 -546 0
544 545 546 0
-547 -548 0
-547 -549 0
-548 -549 0
547 548 549 0
-550 -551 0
-550 -552 0
-551 -552 0
550 551 552 0
-553 -554 0
-553 -555 0
-554 -555 0
553 554 555 0
-556 -557 0
-556 -558 0
-557 -558 0
556 557 558 0
-559 -560 0
-559 -561 0
-560 -561 0
559 560 561 0
-562 -563 0
-562 -564 0
-563 -564 0
562 563 564 0
-565 -566 0
-565 -567 0
-566 -567 0
565 566 567 0
-568 -569 0
-568 -570 0
-569 -570 0
568 569 570 0
-571 -572 0
-571 -573 0
-572 -573 0
571 572 573 0
-574 -575 0
-574 -576 0
-575 -576 0
574 575 576 0
-577 -578 0
-577 -579 0
-578 -579 0
577 578 579 0
-580 -581 0
-580 -582 0
-581 -582 0
580 581 582 0
-583 -584 0
-583 -585 0
-584 -585 0
583 584 585 0
-586 -587 0
-586 -588 0
-587 -588 0
586 587 588 0
-589 -590 0
-589 -591 0
-590 -591 0
589 590 591 0
-592 -593 0
-592 -594 0
-593 -594 0
592 593 594 0
-595 -596 0
-595 -597 0
-596 -597 0
595 596 597 0
-598 -599 0
-598 -600 0
-599 -600 0
598 599 600 0
-25 -1 0
-26 -2 0
-27 -3 0
-85 -1 0
-86 -2 0
-87 -3 0
-199 -1 0
-200 -2 0
-201 -3 0
-262 -1 0
-263 -2 0
-264 -3 0
-289 -1 0
-290 -2 0
-291 -3 0
-61 -4 0
-62 -5 0
-63 -6 0
-208 -4 0
-209 -5 0
-210 -6 0
-289 -4 0
-290 -5 0
-291 -6 0
-376 -4 0
-377 -5 0
-378 -6 0
-418 -4 0
-419 -5 0
-420 -6 0
-490 -4 0
-491 -5 0
-492 -6 0
-52 -7 0
-53 -8 0
-54 -9 0
-97 -7 0
-98 -8 0
-99 -9 0
-151 -7 0
-152 -8 0
-153 -9 0
-250 -7 0
-251 -8 0
-252 -9 0
-271 -7 0
-272 -8 0
-273 -9 0
-508 -7 0
-509 -8 0
-510 -9 0
-595 -7 0
-596 -8 0
-597 -9 0
-571 -10 0
-572 -11 0
-573 -12 0
-67 -13 0
-68 -14 0
-69 -15 0
-187 -13 0
-188 -14 0
-189 -15 0
-250 -13 0
-251 -14 0
-252 -15 0
-328 -13 0
-329 -14 0
-330 -15 0
-511 -13 0
-512 -14 0
-513 -15 0
-100 -16 0
-101 -17 0
-102 -18 0
-157 -16 0
-158 -17 0
-159 -18 0
-325 -16 0
-326 -17 0
-327 -18 0
-499 -16 0
-500 -17 0
-501 -18 0
-547 -16 0
-548 -17 0
-549 -18 0
-28 -19 0
-29 -20 0
-30 -21 0
-106 -19 0
-107 -20 0
-108 -21 0
-133 -19 0
-134 -20 0
-135 -21 0
-217 -19 0
-218 -20 0
-219 -21 0
-289 -19 0
-290 -20 0
-291 -21 0
-349 -19 0
-350 -20 0
-351 -21 0
-502 -19 0
-503 -20 0
-504 -21 0
-376 -22 0
-377 -23 0
-378 -24 0
-406 -22 0
-407 -23 0
-408 -24 0
-466 -22 0
-467 -23 0
-468 -24 0
-520 -22 0
-521 -23 0
-522 -24 0
-568 -22 0
-569 -23 0
-570 -24 0
-49 -25 0
-50 -26 0
-51 -27 0
-79 -25 0
-80 -26 0
-81 -27 0
-271 -25 0
-272 -26 0
-273 -27 0
-310 -25 0
-311 -26 0
-312 -27 0
-163 -28 0
-164 -29 0
-165 -30 0
-199 -28 0
-200 -29 0
-201 -30 0
-274 -28 0
-275 -29 0
-276 -30 0
-331 -28 0
-332 -29 0
-333 -30 0
-373 -28 0
-374 -29 0
-375 -30 0
-211 -31 0
-212 -32 0
-213 -33 0
-544 -31 0
-545 -32 0
-546 -33 0
-97 -34 0
-98 -35 0
-99 -36 0
-169 -34 0
-170 -35 0
-171 -36 0
-391 -34 0
-392 -35 0
-393 -36 0
-430 -34 0
-431 -35 0
-432 -36 0
-451 -34 0
-452 -35 0
-453 -36 0
-514 -34 0
-515 -35 0
-516 -36 0
-151 -37 0
-152 -38 0
-153 -39 0
-154 -37 0
-155 -38 0
-156 -39 0
-184 -37 0
-185 -38 0
-186 -39 0
-292 -37 0
-293 -38 0
-294 -39 0
-544 -37 0
-545 -38 0
-546 -39 0
-61 -40 0
-62 -41 0
-63 -42 0
-124 -40 0
-125 -41 0
-126 -42 0
-382 -40 0
-383 -41 0
-384 -42 0
-478 -40 0
-479 -41 0
-480 -42 0
-535 -40 0
-536 -41 0
-537 -42 0
-595 -40 0
-596 -41 0
-597 -42 0
-274 -43 0
-275 -44 0
-276 -45 0
-319 -43 0
-320 -44 0
-321 -45 0
-346 -43 0
-347 -44 0
-348 -45 0
-403 -43 0
-404 -44 0
-405 -45 0
-421 -43 0
-422 -44 0
-423 -45 0
-61 -46 0
-62 -47 0
-63 -48 0
-214 -46 0
-215 -47 0
-216 -48 0
-244 -46 0
-245 -47 0
-246 -48 0
-322 -46 0
-323 -47 0
-324 -48 0
-487 -46 0
-488 -47 0
-489 -48 0
-112 -49 0
-113 -50 0
-114 -51 0
-310 -49 0
-311 -50 0
-312 -51 0
-451 -49 0
-452 -50 0
-453 -51 0
-472 -49 0
-473 -50 0
-474 -51 0
-79 -52 0
-80 -53 0
-81 -54 0
-124 -52 0
-125 -53 0
-126 -54 0
-538 -52 0
-539 -53 0
-540 -54 0
-541 -52 0
-542 -53 0
-543 -54 0
-547 -52 0
-548 -53 0
-549 -54 0
-124 -55 0
-125 -56 0
-126 -57 0
-298 -55 0
-299 -56 0
-300 -57 0
-388 -55 0
-389 -56 0
-390 -57 0
-481 -55 0
-482 -56 0
-483 -57 0
-490 -55 0
-491 -56 0
-492 -57 0
-61 -58 0
-62 -59 0
-63 -60 0
-130 -58 0
-131 -59 0
-132 -60 0
-157 -58 0
-158 -59 0
-159 -60 0
-103 -61 0
-104 -62 0
-105 -63 0
-67 -64 0
-68 -65 0
-69 -66 0
-82 -64 0
-83 -65 0
-84 -66 0
-169 -64 0
-170 -65 0
-171 -66 0
-190 -64 0
-191 -65 0
-192 -66 0
-199 -64 0
-200 -65 0
-201 -66 0
-256 -64 0
-257 -65 0
-258 -66 0
-433 -64 0
-434 -65 0
-435 -66 0
-445 -64 0
-446 -65 0
-447 -66 0
-151 -67 0
-152 -68 0
-153 -69 0
-337 -67 0
-338 -68 0
-339 -69 0
-400 -67 0
-401 -68 0
-402 -69 0
-484 -67 0
-485 -68 0
-486 -69 0
-553 -67 0
-554 -68 0
-555 -69 0
-571 -67 0
-572 -68 0
-573 -69 0
-100 -70 0
-101 -71 0
-102 -72 0
-355 -70 0
-356 -71 0
-357 -72 0
-418 -70 0
-419 -71 0
-420 -72 0
-487 -70 0
-488 -71 0
-489 -72 0
-199 -73 0
-200 -74 0
-201 -75 0
-250 -73 0
-251 -74 0
-252 -75 0
-361 -73 0
-362 -74 0
-363 -75 0
-409 -73 0
-410 -74 0
-411 -75 0
-499 -73 0
-500 -74 0
-501 -75 0
-139 -76 0
-140 -77 0
-141 -78 0
-313 -76 0
-314 -77 0
-315 -78 0
-352 -76 0
-353 -77 0
-354 -78 0
-445 -76 0
-446 -77 0
-447 -78 0
-157 -79 0
-158 -80 0
-159 -81 0
-283 -79 0
-284 -80 0
-285 -81 0
-349 -79 0
-350 -80 0
-351 -81 0
-415 -79 0
-416 -80 0
-417 -81 0
-439 -79 0
-440 -80 0
-441 -81 0
-334 -82 0
-335 -83 0
-336 -84 0
-382 -82 0
-383 -83 0
-384 -84 0
-520 -82 0
-521 -83 0
-522 -84 0
-142 -85 0
-143 -86 0
-144 -87 0
-178 -85 0
-179 -86 0
-180 -87 0
-193 -85 0
-194 -86 0
-195 -87 0
-346 -85 0
-347 -86 0
-348 -87 0
-385 -88 0
-386 -89 0
-387 -90 0
-523 -88 0
-524 -89 0
-525 -90 0
-121 -91 0
-122 -92 0
-123 -93 0
-244 -91 0
-245 -92 0
-246 -93 0
-448 -91 0
-449 -92 0
-450 -93 0
-532 -91 0
-533 -92 0
-534 -93 0
-256 -94 0
-257 -95 0
-258 -96 0
-325 -94 0
-326 -95 0
-327 -96 0
-595 -94 0
-596 -95 0
-597 -96 0
-307 -97 0
-308 -98 0
-309 -99 0
-403 -97 0
-404 -98 0
-405 -99 0
-427 -97 0
-428 -98 0
-429 -99 0
-121 -100 0
-122 -101 0
-123 -102 0
-109 -103 0
-110 -104 0
-111 -105 0
-340 -103 0
-341 -104 0
-342 -105 0
-436 -103 0
-437 -104 0
-438 -105 0
-490 -103 0
-491 -104 0
-492 -105 0
-553 -103 0
-554 -104 0
-555 -105 0
-295 -106 0
-296 -107 0
-297 -108 0
-388 -106 0
-389 -107 0
-390 -108 0
-493 -106 0
-494 -107 0
-495 -108 0
-571 -106 0
-572 -107 0
-573 -108 0
-115 -109 0
-116 -110 0
-117 -111 0
-136 -109 0
-137 -110 0
-138 -111 0
-175 -109 0
-176 -110 0
-177 -111 0
-286 -109 0
-287 -110 0
-288 -111 0
-370 -109 0
-371 -110 0
-372 -111 0
-532 -109 0
-533 -110 0
-534 -111 0
-535 -109 0
-536 -110 0
-537 -111 0
-292 -112 0
-293 -113 0
-294 -114 0
-460 -112 0
-461 -113 0
-462 -114 0
-517 -112 0
-518 -113 0
-519 -114 0
-541 -112 0
-542 -113 0
-543 -114 0
-118 -115 0
-119 -116 0
-120 -117 0
-337 -115 0
-338 -116 0
-339 -117 0
-484 -115 0
-485 -116 0
-486 -117 0
-520 -115 0
-521 -116 0
-522 -117 0
-310 -118 0
-311 -119 0
-312 -120 0
-466 -118 0
-467 -119 0
-468 -120 0
-529 -118 0
-530 -119 0
-531 -120 0
-232 -121 0
-233 -122 0
-234 -123 0
-313 -121 0
-314 -122 0
-315 -123 0
-535 -121 0
-536 -122 0
-537 -123 0
-295 -124 0
-296 -125 0
-297 -126 0
-499 -124 0
-500 -125 0
-501 -126 0
-235 -127 0
-236 -128 0
-237 -129 0
-310 -127 0
-311 -128 0
-312 -129 0
-388 -127 0
-389 -128 0
-390 -129 0
-460 -127 0
-461 -128 0
-462 -129 0
-556 -127 0
-557 -128 0
-558 -129 0
-142 -130 0
-143 -131 0
-144 -132 0
-148 -130 0
-149 -131 0
-150 -132 0
-247 -130 0
-248 -131 0
-249 -132 0
-160 -133 0
-161 -134 0
-162 -135 0
-178 -133 0
-179 -134 0
-180 -135 0
-208 -133 0
-209 -134 0
-210 -135 0
-280 -133 0
-281 -134 0
-282 -135 0
-334 -133 0
-335 -134 0
-336 -135 0
-445 -133 0
-446 -134 0
-447 -135 0
-538 -133 0
-539 -134 0
-540 -135 0
-193 -136 0
-194 -137 0
-195 -138 0
-442 -136 0
-443 -137 0
-444 -138 0
-475 -136 0
-476 -137 0
-477 -138 0
-232 -139 0
-233 -140 0
-234 -141 0
-499 -139 0
-500 -140 0
-501 -141 0
-580 -139 0
-581 -140 0
-582 -141 0
-241 -142 0
-242 -143 0
-243 -144 0
-334 -142 0
-335 -143 0
-336 -144 0
-517 -142 0
-518 -143 0
-519 -144 0
-220 -145 0
-221 -146 0
-222 -147 0
-265 -145 0
-266 -146 0
-267 -147 0
-280 -145 0
-281 -146 0
-282 -147 0
-331 -145 0
-332 -146 0
-333 -147 0
-334 -145 0
-335 -146 0
-336 -147 0
-457 -145 0
-458 -146 0
-459 -147 0
-463 -145 0
-464 -146 0
-465 -147 0
-547 -145 0
-548 -146 0
-549 -147 0
-256 -148 0
-257 -149 0
-258 -150 0
-304 -148 0
-305 -149 0
-306 -150 0
-310 -148 0
-311 -149 0
-312 -150 0
-175 -151 0
-176 -152 0
-177 -153 0
-265 -151 0
-266 -152 0
-267 -153 0
-307 -151 0
-308 -152 0
-309 -153 0
-430 -151 0
-431 -152 0
-432 -153 0
-184 -154 0
-185 -155 0
-186 -156 0
-379 -154 0
-380 -155 0
-381 -156 0
-436 -154 0
-437 -155 0
-438 -156 0
-163 -157 0
-164 -158 0
-165 -159 0
-184 -157 0
-185 -158 0
-186 -159 0
-250 -157 0
-251 -158 0
-252 -159 0
-424 -157 0
-425 -158 0
-426 -159 0
-301 -160 0
-302 -161 0
-303 -162 0
-553 -160 0
-554 -161 0
-555 -162 0
-343 -163 0
-344 -164 0
-345 -165 0
-496 -163 0
-497 -164 0
-498 -165 0
-544 -163 0
-545 -164 0
-546 -165 0
-307 -166 0
-308 -167 0
-309 -168 0
-361 -166 0
-362 -167 0
-363 -168 0
-481 -166 0
-482 -167 0
-483 -168 0
-238 -169 0
-239 -170 0
-240 -171 0
-256 -169 0
-257 -170 0
-258 -171 0
-370 -169 0
-371 -170 0
-372 -171 0
-286 -172 0
-287 -173 0
-288 -174 0
-298 -172 0
-299 -173 0
-300 -174 0
-190 -175 0
-191 -176 0
-192 -177 0
-238 -175 0
-239 -176 0
-240 -177 0
-283 -175 0
-284 -176 0
-285 -177 0
-325 -175 0
-326 -176 0
-327 -177 0
-379 -175 0
-380 -176 0
-381 -177 0
-595 -175 0
-596 -176 0
-597 -177 0
-316 -178 0
-317 -179 0
-318 -180 0
-319 -178 0
-320 -179 0
-321 -180 0
-403 -178 0
-404 -179 0
-405 -180 0
-418 -178 0
-419 -179 0
-420 -180 0
-244 -181 0
-245 -182 0
-246 -183 0
-331 -184 0
-332 -185 0
-333 -186 0
-403 -184 0
-404 -185 0
-405 -186 0
-523 -184 0
-524 -185 0
-525 -186 0
-211 -187 0
-212 -188 0
-213 -189 0
-487 -187 0
-488 -188 0
-489 -189 0
-199 -190 0
-200 -191 0
-201 -192 0
-340 -190 0
-341 -191 0
-342 -192 0
-511 -190 0
-512 -191 0
-513 -192 0
-583 -190 0
-584 -191 0
-585 -192 0
-238 -193 0
-239 -194 0
-240 -195 0
-505 -193 0
-506 -194 0
-507 -195 0
-553 -193 0
-554 -194 0
-555 -195 0
-298 -196 0
-299 -197 0
-300 -198 0
-397 -196 0
-398 -197 0
-399 -198 0
-445 -196 0
-446 -197 0
-447 -198 0
-463 -196 0
-464 -197 0
-465 -198 0
-571 -196 0
-572 -197 0
-573 -198 0
-580 -196 0
-581 -197 0
-582 -198 0
-220 -202 0
-221 -203 0
-222 -204 0
-235 -205 0
-236 -206 0
-237 -207 0
-388 -205 0
-389 -206 0
-390 -207 0
-394 -205 0
-395 -206 0
-396 -207 0
-430 -205 0
-431 -206 0
-432 -207 0
-367 -208 0
-368 -209 0
-369 -210 0
-232 -211 0
-233 -212 0
-234 -213 0
-292 -211 0
-293 -212 0
-294 -213 0
-499 -211 0
-500 -212 0
-501 -213 0
-577 -211 0
-578 -212 0
-579 -213 0
-277 -214 0
-278 -215 0
-279 -216 0
-568 -214 0
-569 -215 0
-570 -216 0
-334 -217 0
-335 -218 0
-336 -219 0
-394 -217 0
-395 -218 0
-396 -219 0
-460 -217 0
-461 -218 0
-462 -219 0
-523 -217 0
-524 -218 0
-525 -219 0
-301 -220 0
-302 -221 0
-303 -222 0
-517 -220 0
-518 -221 0
-519 -222 0
-241 -223 0
-242 -224 0
-243 -225 0
-547 -223 0
-548 -224 0
-549 -225 0
-598 -223 0
-599 -224 0
-600 -225 0
-337 -226 0
-338 -227 0
-339 -228 0
-391 -226 0
-392 -227 0
-393 -228 0
-418 -226 0
-419 -227 0
-420 -228 0
-562 -226 0
-563 -227 0
-564 -228 0
-325 -229 0
-326 -230 0
-327 -231 0
-496 -229 0
-497 -230 0
-498 -231 0
-487 -232 0
-488 -233 0
-489 -234 0
-559 -232 0
-560 -233 0
-561 -234 0
-268 -235 0
-269 -236 0
-270 -237 0
-298 -235 0
-299 -236 0
-300 -237 0
-370 -235 0
-371 -236 0
-372 -237 0
-409 -235 0
-410 -236 0
-411 -237 0
-502 -235 0
-503 -236 0
-504 -237 0
-565 -235 0
-566 -236 0
-567 -237 0
-271 -238 0
-272 -239 0
-273 -240 0
-397 -238 0
-398 -239 0
-399 -240 0
-496 -238 0
-497 -239 0
-498 -240 0
-517 -241 0
-518 -242 0
-519 -243 0
-250 -244 0
-251 -245 0
-252 -246 0
-289 -244 0
-290 -245 0
-291 -246 0
-337 -244 0
-338 -245 0
-339 -246 0
-466 -247 0
-467 -248 0
-468 -249 0
-487 -250 0
-488 -251 0
-489 -252 0
-541 -250 0
-542 -251 0
-543 -252 0
-352 -256 0
-353 -257 0
-354 -258 0
-454 -256 0
-455 -257 0
-456 -258 0
-265 -259 0
-266 -260 0
-267 -261 0
-277 -259 0
-278 -260 0
-279 -261 0
-511 -259 0
-512 -260 0
-513 -261 0
-589 -259 0
-590 -260 0
-591 -261 0
-286 -262 0
-287 -263 0
-288 -264 0
-295 -262 0
-296 -263 0
-297 -264 0
-481 -262 0
-482 -263 0
-483 -264 0
-499 -262 0
-500 -263 0
-501 -264 0
-367 -265 0
-368 -266 0
-369 -267 0
-325 -268 0
-326 -269 0
-327 -270 0
-556 -268 0
-557 -269 0
-558 -270 0
-562 -268 0
-563 -269 0
-564 -270 0
-412 -271 0
-413 -272 0
-414 -273 0
-532 -271 0
-533 -272 0
-534 -273 0
-334 -274 0
-335 -275 0
-336 -276 0
-550 -274 0
-551 -275 0
-552 -276 0
-367 -277 0
-368 -278 0
-369 -279 0
-388 -277 0
-389 -278 0
-390 -279 0
-511 -277 0
-512 -278 0
-513 -279 0
-313 -280 0
-314 -281 0
-315 -282 0
-376 -280 0
-377 -281 0
-378 -282 0
-535 -280 0
-536 -281 0
-537 -282 0
-355 -283 0
-356 -284 0
-357 -285 0
-433 -283 0
-434 -284 0
-435 -285 0
-559 -283 0
-560 -284 0
-561 -285 0
-562 -283 0
-563 -284 0
-564 -285 0
-337 -286 0
-338 -287 0
-339 -288 0
-556 -286 0
-557 -287 0
-558 -288 0
-451 -289 0
-452 -290 0
-453 -291 0
-469 -289 0
-470 -290 0
-471 -291 0
-556 -289 0
-557 -290 0
-558 -291 0
-430 -292 0
-431 -293 0
-432 -294 0
-505 -292 0
-506 -293 0
-507 -294 0
-574 -292 0
-575 -293 0
-576 -294 0
-595 -292 0
-596 -293 0
-597 -294 0
-304 -295 0
-305 -296 0
-306 -297 0
-382 -295 0
-383 -296 0
-384 -297 0
-556 -295 0
-557 -296 0
-558 -297 0
-418 -298 0
-419 -299 0
-420 -300 0
-541 -298 0
-542 -299 0
-543 -300 0
-448 -301 0
-449 -302 0
-450 -303 0
-379 -304 0
-380 -305 0
-381 -306 0
-349 -310 0
-350 -311 0
-351 -312 0
-367 -310 0
-368 -311 0
-369 -312 0
-415 -310 0
-416 -311 0
-417 -312 0
-517 -313 0
-518 -314 0
-519 -315 0
-568 -313 0
-569 -314 0
-570 -315 0
-337 -316 0
-338 -317 0
-339 -318 0
-472 -316 0
-473 -317 0
-474 -318 0
-586 -316 0
-587 -317 0
-588 -318 0
-397 -319 0
-398 -320 0
-399 -321 0
-340 -322 0
-341 -323 0
-342 -324 0
-523 -322 0
-524 -323 0
-525 -324 0
-535 -322 0
-536 -323 0
-537 -324 0
-358 -328 0
-359 -329 0
-360 -330 0
-409 -328 0
-410 -329 0
-411 -330 0
-454 -328 0
-455 -329 0
-456 -330 0
-502 -328 0
-503 -329 0
-504 -330 0
-412 -331 0
-413 -332 0
-414 -333 0
-442 -331 0
-443 -332 0
-444 -333 0
-505 -331 0
-506 -332 0
-507 -333 0
-526 -331 0
-527 -332 0
-528 -333 0
-550 -337 0
-551 -338 0
-552 -339 0
-391 -340 0
-392 -341 0
-393 -342 0
-523 -340 0
-524 -341 0
-525 -342 0
-580 -340 0
-581 -341 0
-582 -342 0
-376 -343 0
-377 -344 0
-378 -345 0
-400 -343 0
-401 -344 0
-402 -345 0
-424 -346 0
-425 -347 0
-426 -348 0
-463 -346 0
-464 -347 0
-465 -348 0
-478 -346 0
-479 -347 0
-480 -348 0
-484 -346 0
-485 -347 0
-486 -348 0
-502 -346 0
-503 -347 0
-504 -348 0
-568 -346 0
-569 -347 0
-570 -348 0
-391 -349 0
-392 -350 0
-393 -351 0
-397 -349 0
-398 -350 0
-399 -351 0
-481 -349 0
-482 -350 0
-483 -351 0
-463 -352 0
-464 -353 0
-465 -354 0
-487 -352 0
-488 -353 0
-489 -354 0
-382 -355 0
-383 -356 0
-384 -357 0
-433 -355 0
-434 -356 0
-435 -357 0
-574 -355 0
-575 -356 0
-576 -357 0
-529 -358 0
-530 -359 0
-531 -360 0
-595 -358 0
-596 -359 0
-597 -360 0
-523 -361 0
-524 -362 0
-525 -363 0
-478 -364 0
-479 -365 0
-480 -366 0
-571 -364 0
-572 -365 0
-573 -366 0
-490 -367 0
-491 -368 0
-492 -369 0
-532 -367 0
-533 -368 0
-534 -369 0
-388 -370 0
-389 -371 0
-390 -372 0
-472 -373 0
-473 -374 0
-474 -375 0
-598 -376 0
-599 -377 0
-600 -378 0
-559 -379 0
-560 -380 0
-561 -381 0
-598 -379 0
-599 -380 0
-600 -381 0
-421 -382 0
-422 -383 0
-423 -384 0
-442 -382 0
-443 -383 0
-444 -384 0
-580 -385 0
-581 -386 0
-582 -387 0
-562 -394 0
-563 -395 0
-564 -396 0
-460 -397 0
-461 -398 0
-462 -399 0
-541 -397 0
-542 -398 0
-543 -399 0
-529 -403 0
-530 -404 0
-531 -405 0
-409 -406 0
-410 -407 0
-411 -408 0
-538 -409 0
-539 -410 0
-540 -411 0
-415 -412 0
-416 -413 0
-417 -414 0
-589 -412 0
-590 -413 0
-591 -414 0
-496 -415 0
-497 -416 0
-498 -417 0
-559 -415 0
-560 -416 0
-561 -417 0
-592 -415 0
-593 -416 0
-594 -417 0
-448 -421 0
-449 -422 0
-450 -423 0
-550 -421 0
-551 -422 0
-552 -423 0
-562 -421 0
-563 -422 0
-564 -423 0
-460 -424 0
-461 -425 0
-462 -426 0
-493 -424 0
-494 -425 0
-495 -426 0
-496 -424 0
-497 -425 0
-498 -426 0
-577 -427 0
-578 -428 0
-579 -429 0
-577 -433 0
-578 -434 0
-579 -435 0
-439 -436 0
-440 -437 0
-441 -438 0
-454 -436 0
-455 -437 0
-456 -438 0
-481 -436 0
-482 -437 0
-483 -438 0
-541 -436 0
-542 -437 0
-543 -438 0
-442 -439 0
-443 -440 0
-444 -441 0
-583 -445 0
-584 -446 0
-585 -447 0
-538 -448 0
-539 -449 0
-540 -450 0
-577 -448 0
-578 -449 0
-579 -450 0
-499 -451 0
-500 -452 0
-501 -453 0
-517 -451 0
-518 -452 0
-519 -453 0
-484 -454 0
-485 -455 0
-486 -456 0
-559 -454 0
-560 -455 0
-561 -456 0
-565 -454 0
-566 -455 0
-567 -456 0
-511 -457 0
-512 -458 0
-513 -459 0
-589 -457 0
-590 -458 0
-591 -459 0
-517 -460 0
-518 -461 0
-519 -462 0
-589 -460 0
-590 -461 0
-591 -462 0
-538 -463 0
-539 -464 0
-540 -465 0
-565 -463 0
-566 -464 0
-567 -465 0
-571 -463 0
-572 -464 0
-573 -465 0
-502 -466 0
-503 -467 0
-504 -468 0
-544 -466 0
-545 -467 0
-546 -468 0
-487 -469 0
-488 -470 0
-489 -471 0
-511 -469 0
-512 -470 0
-513 -471 0
-598 -469 0
-599 -470 0
-600 -471 0
-484 -475 0
-485 -476 0
-486 -477 0
-535 -475 0
-536 -476 0
-537 -477 0
-583 -475 0
-584 -476 0
-585 -477 0
-595 -475 0
-596 -476 0
-597 -477 0
-586 -478 0
-587 -479 0
-588 -480 0
-505 -481 0
-506 -482 0
-507 -483 0
-553 -484 0
-554 -485 0
-555 -486 0
-577 -484 0
-578 -485 0
-579 -486 0
-529 -490 0
-530 -491 0
-531 -492 0
-529 -493 0
-530 -494 0
-531 -495 0
-535 -493 0
-536 -494 0
-537 -495 0
-598 -499 0
-599 -500 0
-600 -501 0
-523 -502 0
-524 -503 0
-525 -504 0
-562 -505 0
-563 -506 0
-564 -507 0
-583 -508 0
-584 -509 0
-585 -510 0
-589 -511 0
-590 -512 0
-591 -513 0
-559 -520 0
-560 -521 0
-561 -522 0
-595 -520 0
-596 -521 0
-597 -522 0
-580 -526 0
-581 -527 0
-582 -528 0
-574 -532 0
-575 -533 0
-576 -534 0
-598 -544 0
-599 -545 0
-600 -546 0
-589 -547 0
-590 -548 0
-591 -549 0
